% File represents an instance of a Composite Structure problem to be solved by a CP framework
% Created on 2025-03-26 10:41:55.859
T = 58;
n = 36;
m = 60;
edges = [(2, 1),
(7, 8),
(14, 13),
(20, 19),
(26, 25),
(32, 31),
(2, 3),
(8, 9),
(14, 15),
(21, 20),
(26, 27),
(33, 32),
(3, 4),
(10, 9),
(16, 15),
(22, 21),
(28, 27),
(34, 33),
(5, 4),
(10, 11),
(16, 17),
(22, 23),
(28, 29),
(34, 35),
(6, 5),
(12, 11),
(18, 17),
(24, 23),
(30, 29),
(35, 36),
(7, 1),
(7, 13),
(13, 19),
(25, 19),
(25, 31),
(2, 8),
(14, 8),
(14, 20),
(26, 20),
(26, 32),
(9, 3),
(15, 9),
(21, 15),
(21, 27),
(33, 27),
(10, 4),
(16, 10),
(22, 16),
(22, 28),
(34, 28),
(5, 11),
(17, 11),
(23, 17),
(23, 29),
(35, 29),
(6, 12),
(18, 12),
(24, 18),
(24, 30),
(30, 36)];
counts = [|4, 22, 4, 16,
|6, 22, 6, 16,
|6, 18, 6, 14,
|6, 18, 6, 12,
|6, 22, 6, 14,
|8, 22, 8, 14,
|6, 22, 6, 18,
|6, 20, 6, 16,
|6, 20, 6, 14,
|6, 20, 6, 16,
|6, 18, 6, 12,
|8, 18, 8, 14,
|6, 20, 6, 16,
|8, 20, 8, 16,
|8, 20, 8, 14,
|8, 20, 8, 16,
|8, 18, 8, 14,
|8, 18, 8, 20,
|6, 18, 6, 16,
|6, 20, 6, 16,
|8, 20, 8, 18,
|8, 20, 8, 22,
|8, 20, 8, 16,
|8, 20, 8, 22,
|6, 20, 6, 18,
|6, 24, 6, 18,
|6, 18, 6, 18,
|8, 20, 8, 18,
|8, 20, 8, 14,
|8, 20, 8, 16,
|6, 14, 6, 18,
|6, 18, 6, 18,
|6, 20, 6, 18,
|8, 20, 8, 20,
|8, 20, 8, 16,
|8, 20, 8, 14|];
